0 23 34 2 4 5 3 4 5 6
3 0 23 43 3 2 5 3 2 2
2 0 0 43 3 2 12 3 2 8
2 0 23 0 3 2 1 3 2 1
8 0 23 8 0 1 5 9 2 4
2 0 23 43 3 0 5 9 2 4
67 0 23 4 3 2 0 3 2 4
2 0 23 43 3 2 5 0 2 4
23 0 23 17 3 2 5 3 0 4
7 0 23 2 3 2 5 3 2 0